Solving original (integer) problem with strategy gdp.hull_exact...
--- Job model.gms Start 02/15/26 02:43:40 52.2.0 d8e408be LEX-LEG x86 64bit/Linux
--- Applying:
    /package/gams/52.2/gmsprmun.txt
--- GAMS Parameters defined
    Input /local/scratch/a/sgusev/repos/k_means/data/gams_gurobi_gdp.hull_exact/no_mode/2026-02-15_02-43-39/original/model.gms
    Output /local/scratch/a/sgusev/repos/k_means/data/gams_gurobi_gdp.hull_exact/no_mode/2026-02-15_02-43-39/original/output.lst
    ScrDir /local/scratch/a/sgusev/repos/k_means/data/gams_gurobi_gdp.hull_exact/no_mode/2026-02-15_02-43-39/original/225a/
    SysDir /package/gams/52.2/
    CurDir /local/scratch/a/sgusev/repos/k_means/data/gams_gurobi_gdp.hull_exact/no_mode/2026-02-15_02-43-39/original/
    LogOption 3
    AppendLog 1
Licensee: David Bernal / SECQUOIA Research Group         G251008+0003Ac-GEN
          Purdue University, Davidson School of Chemical EngineeringDCE4838
          225a/gamslice.dat
          5a82958a-fbca-4a23
          node:66820903 mem:995 cores:48 ipport:53773 v:2                  
          Evaluation license: Not for commercial or production use
          The time-limited license stops working on : Jun 30, 2027
System information: 48 physical cores and 995 Gb physical memory detected
GAMS 52.2.0   Copyright (C) 1987-2025 GAMS Development. All rights reserved
--- Starting compilation
--- model.gms(3486) 2 Mb
--- $echo File /local/scratch/a/sgusev/repos/k_means/data/gams_gurobi_gdp.hull_exact/no_mode/2026-02-15_02-43-39/original/gurobi.opt
--- model.gms(5149) 2 Mb
--- Starting execution: elapsed 0:00:00.020
--- model.gms(3495) 3 Mb
--- Generating MINLP model GAMS_MODEL
--- model.gms(3499) 6 Mb
---   1,059 rows  538 columns  2,593 non-zeroes
---   1,785 nl-code  340 nl-non-zeroes
---   85 discrete-columns
--- Range statistics (absolute non-zero finite values)
--- RHS       [min, max] : [ 1.000E+00, 1.000E+00] - Zero values observed as well
--- Bound     [min, max] : [ 1.000E+00, 6.800E+01] - Zero values observed as well
--- Matrix    [min, max] : [ 1.000E+00, 6.800E+01] - Zero values observed as well
--- model.gms(3499) 4 Mb
--- Executing GUROBI (Solvelink=5): elapsed 0:00:00.026
Reading parameter(s) from "/local/scratch/a/sgusev/repos/k_means/data/gams_gurobi_gdp.hull_exact/no_mode/2026-02-15_02-43-39/original/gurobi.opt"
>>  NonConvex 2
>>  Threads 1
>>  MIPGap 1e-06
>>  MIPGapAbs 1e-10
>>  FeasibilityTol 1e-06
>>  OptimalityTol 1e-06
>>  IntFeasTol 1e-05
Finished reading from "/local/scratch/a/sgusev/repos/k_means/data/gams_gurobi_gdp.hull_exact/no_mode/2026-02-15_02-43-39/original/gurobi.opt"

... GRB_LICENSE_FILE = /local/scratch/a/sgusev/gurobi.lic

    Gurobi           52.2.0 d8e408be Dec 8, 2025           LEG x86 64bit/Linux    

... GAMS/Gurobi Link license.
... GMO Q Extraction (ThreePass): 0.00s

    Gurobi Optimizer version 13.0.0 build v13.0.0rc1 (linux64 - "Oracle Linux Server 9.7")
    
    CPU model: AMD EPYC 7643 48-Core Processor, instruction set [SSE2|AVX|AVX2]
    Thread count: 48 physical cores, 96 logical processors, using up to 1 threads
    
    Non-default parameters:
    TimeLimit  300
    MIPGap  1e-06
    LogToConsole  0
    NonConvex  2
    Threads  1
    
    Optimize a model with 973 rows, 537 columns and 2235 nonzeros (Min)
    Model fingerprint: 0x8446f167
    Model has 17 linear objective coefficients
    Model has 85 quadratic constraints
    Variable types: 452 continuous, 85 integer (0 binary)
    Coefficient statistics:
      Matrix range     [1e+00, 7e+01]
      QMatrix range    [3e-02, 2e+00]
      Objective range  [1e+00, 1e+00]
      Bounds range     [1e+00, 7e+01]
      RHS range        [1e+00, 1e+00]
    Presolve removed 170 rows and 187 columns
    Presolve time: 0.01s
    Presolved: 1318 rows, 775 columns, 3498 nonzeros
    Presolved model has 170 quadratic constraint(s)
    Variable types: 690 continuous, 85 integer (85 binary)
    
    Root relaxation: objective 0.000000e+00, 306 iterations, 0.00 seconds (0.00 work units)
    
        Nodes    |    Current Node    |     Objective Bounds      |     Work
     Expl Unexpl |  Obj  Depth IntInf | Incumbent    BestBd   Gap | It/Node Time
    
    H    0     0                       4.4709485    0.00000   100%     -    0s
    *    0     0               0       4.4709485    0.00000   100%     -    0s
         0     0    0.00000    0   18    4.47095    0.00000   100%     -    0s
         0     0    0.00000    0   28    4.47095    0.00000   100%     -    0s
         0     0    0.00000    0   29    4.47095    0.00000   100%     -    0s
         0     0    0.00000    0   27    4.47095    0.00000   100%     -    0s
         0     0    0.00000    0    8    4.47095    0.00000   100%     -    0s
         0     0    0.00000    0   22    4.47095    0.00000   100%     -    0s
         0     0    0.00000    0   25    4.47095    0.00000   100%     -    0s
         0     0    0.00000    0   18    4.47095    0.00000   100%     -    0s
         0     0    0.00000    0   26    4.47095    0.00000   100%     -    0s
         0     0    0.00000    0   20    4.47095    0.00000   100%     -    0s
         0     0    0.00000    0   24    4.47095    0.00000   100%     -    0s
         0     0    0.00000    0   24    4.47095    0.00000   100%     -    0s
         0     0    0.00000    0   22    4.47095    0.00000   100%     -    0s
         0     0    0.00000    0   10    4.47095    0.00000   100%     -    0s
         0     0    0.00000    0   24    4.47095    0.00000   100%     -    0s
         0     0    0.00000    0   20    4.47095    0.00000   100%     -    0s
         0     0    0.00000    0   23    4.47095    0.00000   100%     -    0s
         0     0    0.00000    0   20    4.47095    0.00000   100%     -    0s
         0     0    0.00000    0   24    4.47095    0.00000   100%     -    0s
         0     0    0.00000    0   24    4.47095    0.00000   100%     -    0s
         0     0    0.00000    0   28    4.47095    0.00000   100%     -    0s
         0     0    0.00000    0   26    4.47095    0.00000   100%     -    0s
         0     0    0.00000    0   28    4.47095    0.00000   100%     -    0s
         0     0    0.00000    0   24    4.47095    0.00000   100%     -    0s
         0     0    0.00000    0   27    4.47095    0.00000   100%     -    0s
         0     0    0.00000    0   24    4.47095    0.00000   100%     -    0s
         0     0    0.00000    0   30    4.47095    0.00000   100%     -    0s
         0     0    0.00000    0   10    4.47095    0.00000   100%     -    0s
         0     0    0.00000    0   24    4.47095    0.00000   100%     -    0s
         0     0    0.00000    0   21    4.47095    0.00000   100%     -    0s
         0     0    0.00000    0   26    4.47095    0.00000   100%     -    0s
         0     0    0.00000    0   26    4.47095    0.00000   100%     -    0s
         0     0    0.00000    0   22    4.47095    0.00000   100%     -    0s
         0     0    0.00000    0   22    4.47095    0.00000   100%     -    0s
         0     0    0.00000    0   24    4.47095    0.00000   100%     -    0s
         0     0    0.00000    0   24    4.47095    0.00000   100%     -    0s
         0     0    0.00000    0   28    4.47095    0.00000   100%     -    0s
         0     0    0.00000    0   25    4.47095    0.00000   100%     -    0s
         0     0    0.00000    0   24    4.47095    0.00000   100%     -    0s
         0     0    0.00000    0   24    4.47095    0.00000   100%     -    0s
         0     0    0.00000    0   29    4.47095    0.00000   100%     -    0s
         0     0    0.00000    0   24    4.47095    0.00000   100%     -    0s
         0     0    0.00000    0   26    4.47095    0.00000   100%     -    0s
         0     0    0.00000    0   26    4.47095    0.00000   100%     -    0s
         0     0    0.00000    0   28    4.47095    0.00000   100%     -    0s
         0     0    0.00000    0   26    4.47095    0.00000   100%     -    0s
         0     0    0.00000    0   21    4.47095    0.00000   100%     -    0s
         0     0    0.00000    0   21    4.47095    0.00000   100%     -    0s
         0     0    0.00000    0   28    4.47095    0.00000   100%     -    0s
         0     0    0.00000    0   24    4.47095    0.00000   100%     -    0s
         0     0    0.00000    0   29    4.47095    0.00000   100%     -    0s
         0     0    0.00000    0   22    4.47095    0.00000   100%     -    0s
         0     0    0.00000    0   28    4.47095    0.00000   100%     -    0s
         0     0    0.00000    0   24    4.47095    0.00000   100%     -    0s
         0     0    0.00000    0   26    4.47095    0.00000   100%     -    0s
         0     0    0.00000    0   22    4.47095    0.00000   100%     -    0s
         0     0    0.00000    0   27    4.47095    0.00000   100%     -    0s
         0     0    0.00000    0   22    4.47095    0.00000   100%     -    0s
         0     0    0.00000    0   28    4.47095    0.00000   100%     -    0s
         0     0    0.00000    0   24    4.47095    0.00000   100%     -    0s
         0     0    0.00000    0   24    4.47095    0.00000   100%     -    0s
         0     0    0.00000    0   24    4.47095    0.00000   100%     -    0s
         0     0    0.00000    0   24    4.47095    0.00000   100%     -    0s
         0     0    0.00000    0   18    4.47095    0.00000   100%     -    0s
         0     0    0.00000    0   22    4.47095    0.00000   100%     -    0s
         0     0    0.00000    0   22    4.47095    0.00000   100%     -    0s
         0     0    0.00000    0   24    4.47095    0.00000   100%     -    0s
         0     0    0.00000    0   18    4.47095    0.00000   100%     -    0s
         0     0    0.00000    0   22    4.47095    0.00000   100%     -    0s
         0     0    0.00000    0   22    4.47095    0.00000   100%     -    0s
         0     0    0.00000    0   18    4.47095    0.00000   100%     -    0s
         0     0    0.00000    0   16    4.47095    0.00000   100%     -    0s
         0     0    0.00000    0   15    4.47095    0.00000   100%     -    0s
         0     0    0.00000    0   10    4.47095    0.00000   100%     -    0s
         0     0    0.00000    0   22    4.47095    0.00000   100%     -    0s
         0     0    0.00000    0   20    4.47095    0.00000   100%     -    0s
         0     0    0.00000    0   22    4.47095    0.00000   100%     -    0s
         0     0    0.00000    0   22    4.47095    0.00000   100%     -    0s
         0     0    0.00000    0   22    4.47095    0.00000   100%     -    0s
         0     0    0.00000    0   19    4.47095    0.00000   100%     -    0s
         0     0    0.00000    0   24    4.47095    0.00000   100%     -    0s
         0     0    0.00000    0   24    4.47095    0.00000   100%     -    0s
         0     0    0.00000    0   24    4.47095    0.00000   100%     -    0s
         0     0    0.00000    0   24    4.47095    0.00000   100%     -    0s
         0     0    0.00000    0   28    4.47095    0.00000   100%     -    0s
         0     0    0.00000    0   26    4.47095    0.00000   100%     -    0s
         0     0    0.00000    0   26    4.47095    0.00000   100%     -    0s
         0     0    0.00000    0   24    4.47095    0.00000   100%     -    0s
         0     0    0.00000    0   24    4.47095    0.00000   100%     -    0s
         0     0    0.00000    0   21    4.47095    0.00000   100%     -    0s
         0     0    0.00000    0   24    4.47095    0.00000   100%     -    0s
         0     0    0.00000    0   22    4.47095    0.00000   100%     -    0s
         0     0    0.00000    0   22    4.47095    0.00000   100%     -    0s
         0     0    0.00000    0   22    4.47095    0.00000   100%     -    0s
         0     0    0.00000    0   20    4.47095    0.00000   100%     -    0s
         0     0    0.00000    0   20    4.47095    0.00000   100%     -    0s
         0     0    0.00000    0   20    4.47095    0.00000   100%     -    0s
         0     0    0.00000    0   18    4.47095    0.00000   100%     -    0s
         0     0    0.00000    0   20    4.47095    0.00000   100%     -    0s
         0     0    0.00000    0   20    4.47095    0.00000   100%     -    0s
         0     0    0.00000    0   18    4.47095    0.00000   100%     -    0s
         0     0    0.00000    0   18    4.47095    0.00000   100%     -    0s
         0     0    0.00000    0   22    4.47095    0.00000   100%     -    0s
         0     0    0.00000    0   15    4.47095    0.00000   100%     -    0s
         0     0    0.00000    0   23    4.47095    0.00000   100%     -    0s
         0     0    0.00000    0   18    4.47095    0.00000   100%     -    0s
         0     0    0.00000    0   20    4.47095    0.00000   100%     -    0s
         0     0    0.00000    0   20    4.47095    0.00000   100%     -    0s
         0     0    0.00000    0   20    4.47095    0.00000   100%     -    0s
         0     0    0.00000    0   16    4.47095    0.00000   100%     -    0s
         0     0    0.00000    0   24    4.47095    0.00000   100%     -    0s
         0     0    0.00000    0   24    4.47095    0.00000   100%     -    0s
         0     0    0.00000    0   24    4.47095    0.00000   100%     -    0s
         0     0    0.00000    0   22    4.47095    0.00000   100%     -    0s
         0     0    0.00000    0   23    4.47095    0.00000   100%     -    0s
         0     0    0.00000    0   18    4.47095    0.00000   100%     -    0s
         0     0    0.00000    0   22    4.47095    0.00000   100%     -    0s
         0     0    0.00000    0   22    4.47095    0.00000   100%     -    0s
         0     0    0.00000    0   22    4.47095    0.00000   100%     -    0s
         0     0    0.00000    0   22    4.47095    0.00000   100%     -    0s
         0     0    0.00000    0   26    4.47095    0.00000   100%     -    0s
         0     0    0.00000    0   26    4.47095    0.00000   100%     -    0s
         0     0    0.00000    0   22    4.47095    0.00000   100%     -    0s
         0     0    0.00000    0   22    4.47095    0.00000   100%     -    0s
         0     0    0.00000    0   28    4.47095    0.00000   100%     -    0s
         0     0    0.00000    0   22    4.47095    0.00000   100%     -    0s
         0     0    0.00000    0   19    4.47095    0.00000   100%     -    0s
         0     0    0.00000    0   19    4.47095    0.00000   100%     -    0s
         0     0    0.00000    0   26    4.47095    0.00000   100%     -    0s
         0     0    0.00000    0   26    4.47095    0.00000   100%     -    0s
         0     0    0.00000    0   32    4.47095    0.00000   100%     -    0s
         0     0    0.00000    0   22    4.47095    0.00000   100%     -    0s
         0     0    0.00000    0   28    4.47095    0.00000   100%     -    0s
         0     0    0.00000    0   24    4.47095    0.00000   100%     -    0s
         0     0    0.00000    0   20    4.47095    0.00000   100%     -    0s
         0     0    0.00000    0   20    4.47095    0.00000   100%     -    0s
         0     0    0.00000    0   24    4.47095    0.00000   100%     -    0s
         0     0    0.00000    0   10    4.47095    0.00000   100%     -    0s
         0     0    0.00000    0   16    4.47095    0.00000   100%     -    0s
         0     0    0.00000    0   16    4.47095    0.00000   100%     -    0s
         0     0    0.00000    0   16    4.47095    0.00000   100%     -    0s
         0     0    0.00000    0   16    4.47095    0.00000   100%     -    0s
         0     0    0.00000    0   22    4.47095    0.00000   100%     -    0s
         0     0    0.00000    0   22    4.47095    0.00000   100%     -    0s
         0     0    0.00000    0   28    4.47095    0.00000   100%     -    0s
         0     0    0.00000    0   14    4.47095    0.00000   100%     -    0s
         0     0    0.00000    0   25    4.47095    0.00000   100%     -    0s
         0     0    0.00000    0   18    4.47095    0.00000   100%     -    0s
         0     0    0.00000    0   20    4.47095    0.00000   100%     -    0s
         0     0    0.00000    0   18    4.47095    0.00000   100%     -    0s
         0     0    0.00000    0   22    4.47095    0.00000   100%     -    0s
         0     0    0.00000    0   22    4.47095    0.00000   100%     -    0s
         0     0    0.00000    0   22    4.47095    0.00000   100%     -    0s
         0     0    0.00000    0   22    4.47095    0.00000   100%     -    0s
         0     0    0.00000    0   22    4.47095    0.00000   100%     -    0s
         0     0    0.00000    0   22    4.47095    0.00000   100%     -    0s
         0     0    0.00000    0   22    4.47095    0.00000   100%     -    0s
         0     0    0.00000    0   22    4.47095    0.00000   100%     -    0s
         0     0    0.00000    0   24    4.47095    0.00000   100%     -    0s
         0     0    0.00000    0   16    4.47095    0.00000   100%     -    0s
         0     0    0.00000    0   22    4.47095    0.00000   100%     -    0s
         0     0    0.00000    0   18    4.47095    0.00000   100%     -    0s
         0     0    0.00000    0   23    4.47095    0.00000   100%     -    0s
         0     0    0.00000    0   21    4.47095    0.00000   100%     -    0s
         0     0    0.00000    0   22    4.47095    0.00000   100%     -    0s
         0     0    0.00000    0   22    4.47095    0.00000   100%     -    0s
         0     0    0.00000    0   22    4.47095    0.00000   100%     -    0s
         0     0    0.00000    0   22    4.47095    0.00000   100%     -    0s
         0     0    0.00000    0   23    4.47095    0.00000   100%     -    0s
         0     0    0.00000    0   14    4.47095    0.00000   100%     -    1s
         0     0    0.00000    0   26    4.47095    0.00000   100%     -    1s
         0     0    0.00000    0   25    4.47095    0.00000   100%     -    1s
         0     0    0.00000    0   26    4.47095    0.00000   100%     -    1s
         0     0    0.00000    0   25    4.47095    0.00000   100%     -    1s
         0     0    0.00000    0   28    4.47095    0.00000   100%     -    1s
         0     0    0.00000    0   28    4.47095    0.00000   100%     -    1s
         0     0    0.00000    0   28    4.47095    0.00000   100%     -    1s
         0     0    0.00000    0   28    4.47095    0.00000   100%     -    1s
         0     0    0.00000    0   27    4.47095    0.00000   100%     -    1s
         0     0    0.00000    0   23    4.47095    0.00000   100%     -    1s
         0     0    0.00000    0   21    4.47095    0.00000   100%     -    1s
         0     0    0.00000    0   16    4.47095    0.00000   100%     -    1s
         0     0    0.00000    0   25    4.47095    0.00000   100%     -    1s
         0     0    0.00000    0   18    4.47095    0.00000   100%     -    1s
         0     0    0.00000    0   20    4.47095    0.00000   100%     -    1s
         0     0    0.00000    0   20    4.47095    0.00000   100%     -    1s
         0     0    0.00000    0   26    4.47095    0.00000   100%     -    1s
         0     0    0.00000    0   24    4.47095    0.00000   100%     -    1s
         0     0    0.00000    0   24    4.47095    0.00000   100%     -    1s
         0     0    0.00000    0   22    4.47095    0.00000   100%     -    1s
         0     0    0.00000    0   24    4.47095    0.00000   100%     -    1s
         0     0    0.00000    0   16    4.47095    0.00000   100%     -    1s
         0     0    0.00000    0   24    4.47095    0.00000   100%     -    1s
         0     0    0.00000    0   24    4.47095    0.00000   100%     -    1s
         0     0    0.00000    0   24    4.47095    0.00000   100%     -    1s
         0     0    0.00000    0   24    4.47095    0.00000   100%     -    1s
         0     0    0.00000    0   26    4.47095    0.00000   100%     -    1s
         0     0    0.00000    0   18    4.47095    0.00000   100%     -    1s
         0     0    0.00000    0   20    4.47095    0.00000   100%     -    1s
         0     0    0.00000    0   18    4.47095    0.00000   100%     -    1s
         0     0    0.00000    0   24    4.47095    0.00000   100%     -    1s
         0     0    0.00000    0   14    4.47095    0.00000   100%     -    1s
    H    0     0                       2.8479745    0.00000   100%     -    1s
         0     2    0.00000    0   14    2.84797    0.00000   100%     -    1s
    H    4     4                       2.8479743    0.00000   100%   141    1s
    H   30    30                       2.8479742    0.00000   100%   117    1s
    H   43    43                       2.7658257    0.00000   100%  99.3    1s
    H   79    63                       2.6079289    0.00000   100%  79.1    1s
    H  124    98                       2.0213906    0.00000   100%  71.9    1s
    H  134    96                       1.8652329    0.00000   100%  72.4    1s
    H  139   101                       1.8652326    0.00000   100%  74.8    1s
    H  149   111                       1.8652324    0.00000   100%  75.3    1s
    H  163   122                       1.8013603    0.00000   100%  76.9    1s
    H  192   135                       1.7785374    0.00000   100%  69.2    1s
    H  271   180                       1.7785369    0.00000   100%  60.3    1s
    H  301   191                       1.6537060    0.00000   100%  60.8    1s
       382   245    1.11364   28   35    1.65371    0.00000   100%  47.9    5s
    H  428   261                       1.6537053    0.00000   100%   213    6s
    H  432   248                       1.6537052    0.00000   100%   212    6s
    H  437   236                       1.6537052    0.00000   100%   211    7s
    H  459   227                       1.6228402    0.00000   100%   207    7s
    H  473   221                       1.6228402    0.00000   100%   205    7s
    H  486   215                       1.6186414    0.00000   100%   203    8s
    H  492   206                       1.6186414    0.00000   100%   202    8s
    H  523   195                       1.6186411    0.00000   100%   193    8s
    H  523   185                       1.6186411    0.00000   100%   193    8s
    H  527   178                       1.6186411    0.00000   100%   194    8s
    H  531   171                       1.6186408    0.00000   100%   195    8s
       871   304    1.15768   45   29    1.61864    0.00000   100%   168   10s
    H 1078   416                       1.6186408    0.00000   100%   156   10s
    H 1255   548                       1.5986622    0.00000   100%   145   11s
    H 1304   567                       1.5986622    0.00000   100%   144   11s
    H 1330   577                       1.5986622    0.00000   100%   144   11s
      2140  1010    0.82298   40   36    1.59866    0.00000   100%   144   15s
    H 2744  1304                       1.5960070    0.00000   100%   142   17s
    H 2782  1334                       1.5960066    0.00000   100%   141   17s
    H 2851  1366                       1.5960063    0.00000   100%   142   18s
    H 3019  1447                       1.5960062    0.00000   100%   144   18s
    H 3099  1474                       1.5960061    0.00000   100%   143   19s
    H 3108  1470                       1.5530878    0.00000   100%   142   19s
    H 3172  1422                       1.4201174    0.00000   100%   141   19s
    H 3172  1422                       1.4201170    0.00000   100%   141   19s
      3304  1497    0.22450   18   46    1.42012    0.00000   100%   142   20s
    H 3358  1529                       1.4201170    0.00000   100%   142   20s
    H 3426  1571                       1.4201170    0.00000   100%   141   20s
    H 3461  1576                       1.4201170    0.00000   100%   141   20s
    H 3583  1618                       1.4201169    0.00000   100%   141   21s
    H 3645  1634                       1.4201169    0.00000   100%   141   21s
    H 4271  1838                       1.4201169    0.00502   100%   141   23s
    H 4284  1840                       1.4201169    0.00583   100%   141   23s
    H 4295  1841                       1.4201169    0.00621   100%   141   23s
      4577  1941    1.04469   36   23    1.42012    0.00708   100%   139   25s
      6169  2448    0.89640   34   36    1.42012    0.04548  96.8%   134   30s
    H 6973  2676                       1.3942787    0.06592  95.3%   133   32s
      7843  2902    1.18709   39   20    1.39428    0.09643  93.1%   132   35s
      9906  3560    0.66503   24   39    1.39428    0.15465  88.9%   124   40s
     11980  4084    1.11925   25   25    1.39428    0.21972  84.2%   120   45s
     14044  4558    0.43199   31   33    1.39428    0.26773  80.8%   118   50s
     16381  5082    1.21112   38   21    1.39428    0.33048  76.3%   113   55s
     18454  5629 infeasible   38         1.39428    0.35417  74.6%   111   60s
     20338  5988    0.96703   35   30    1.39428    0.39741  71.5%   109   65s
     22612  6444    0.95686   24   26    1.39428    0.44322  68.2%   107   70s
     25016  6937    1.02972   24   30    1.39428    0.49084  64.8%   104   75s
    H25104  6939                       1.3824443    0.49160  64.4%   104   75s
     27322  7244    1.22517   35   27    1.38244    0.53181  61.5%   102   80s
     29902  7478    1.10509   27   29    1.38244    0.57865  58.1%   100   85s
     32319  7721    0.61923   35   34    1.38244    0.61666  55.4%  98.2   90s
     34692  7984 infeasible   30         1.38244    0.64024  53.7%  97.0   95s
    H36354  8025                       1.3349446    0.65750  50.7%  95.8   98s
     37238  8103    0.70349   36   38    1.33494    0.66537  50.2%  95.3  100s
     39608  8200    0.89085   36   32    1.33494    0.69500  47.9%  94.2  105s
     42177  8366    1.32208   31   23    1.33494    0.72031  46.0%  92.8  110s
     44667  8354    0.76790   32   34    1.33494    0.74723  44.0%  91.6  115s
    H45633  8334                       1.3259986    0.75634  43.0%  91.0  116s
     47228  8216    1.20187   39   33    1.32600    0.77359  41.7%  90.5  120s
     49886  8068    0.80048   30   33    1.32600    0.80048  39.6%  89.3  125s
     52815  7798    0.84345   33   30    1.32600    0.83707  36.9%  87.7  130s
     55543  7522    0.92308   27   41    1.32600    0.86471  34.8%  86.6  135s
     58457  7068 infeasible   30         1.32600    0.89555  32.5%  85.2  140s
     61182  6546    1.19501   49   12    1.32600    0.92579  30.2%  83.9  145s
     64464  5836     cutoff   35         1.32600    0.96952  26.9%  82.2  150s
    H65372  5466                       1.3001595    0.98045  24.6%  81.6  151s
     67979  4657    1.15964   30   25    1.30016    1.01582  21.9%  80.2  155s
     71493  3130     cutoff   44         1.30016    1.07760  17.1%  78.5  160s
    H72252  2720                       1.3001594    1.09691  15.6%  78.1  161s
     75027   984    1.23029   32   28    1.30016    1.18974  8.49%  76.5  165s
    
    Cutting planes:
      Implied bound: 7
      MIR: 1
      Flow cover: 8
      Relax-and-lift: 1
    
    Explored 76230 nodes (5811239 simplex iterations) in 166.30 seconds (155.21 work units)
    Thread count was 1 (of 96 available processors)
    
    Solution count 10: 1.30016 1.30016 1.326 ... 1.59866
    No other solutions better than 1.30016
    
    Optimal solution found (tolerance 1.00e-06)
    Best objective 1.300159373413e+00, best bound 1.300159373413e+00, gap 0.0000%
    
    User-callback calls 76382, time in user-callback 0.00 sec

... Solving fixed model...

    Gurobi Optimizer version 13.0.0 build v13.0.0rc1 (linux64 - "Oracle Linux Server 9.7")
    
    CPU model: AMD EPYC 7643 48-Core Processor, instruction set [SSE2|AVX|AVX2]
    Thread count: 48 physical cores, 96 logical processors, using up to 1 threads
    
    Non-default parameters:
    TimeLimit  300
    MIPGap  1e-06
    LogToConsole  0
    NonConvex  2
    Threads  1
    
    Optimize a model with 973 rows, 537 columns and 2235 nonzeros (Min)
    Model fingerprint: 0x26043725
    Model has 17 linear objective coefficients
    Model has 85 quadratic constraints
    Coefficient statistics:
      Matrix range     [1e+00, 7e+01]
      QMatrix range    [3e-02, 2e+00]
      Objective range  [1e+00, 1e+00]
      Bounds range     [1e+00, 7e+01]
      RHS range        [1e+00, 1e+00]
    Presolve removed 969 rows and 510 columns
    Presolve time: 0.00s
    Presolved: 67 rows, 85 columns, 163 nonzeros
    Presolved model has 17 second-order cone constraints
    Ordering time: 0.00s
    
    Barrier statistics:
     AA' NZ     : 3.750e+02
     Factor NZ  : 5.730e+02
     Factor Ops : 6.405e+03 (less than 1 second per iteration)
     Threads    : 1
    
                      Objective                Residual
    Iter       Primal          Dual         Primal    Dual     Compl     Time
       0   5.89986065e+02 -3.48649032e+02  7.66e+00 3.91e+00  9.62e+00     0s
       1   3.95037937e+01 -5.79918874e+01  9.99e-03 4.30e-06  8.11e-01     0s
       2   2.18579633e+00 -1.22914392e+01  1.64e-04 8.75e-07  1.21e-01     0s
       3   1.56093058e+00 -3.72719523e+00  3.07e-06 3.12e-07  4.41e-02     0s
       4   1.37048432e+00  1.01797692e+00  3.38e-12 1.52e-08  2.94e-03     0s
       5   1.30312816e+00  1.29502545e+00  1.85e-13 2.18e-10  6.75e-05     0s
       6   1.30020076e+00  1.30005925e+00  6.61e-12 3.89e-12  1.18e-06     0s
       7   1.30016260e+00  1.30015774e+00  1.07e-10 1.89e-13  4.05e-08     0s
       8   1.30015954e+00  1.30015922e+00  7.62e-09 5.07e-12  2.63e-09     0s
    
    Barrier solved model in 8 iterations and 0.00 seconds (0.00 work units)
    Optimal objective 1.30015954e+00
    
    
    User-callback calls 0, time in user-callback 0.00 sec
    Warning: to get QCP duals, please set parameter QCPDual to 1

--- Reading solution for model GAMS_MODEL
***
*** Solver did not provide marginals for model GAMS_MODEL
***
--- Executing after solve: elapsed 0:02:46.357
--- model.gms(3502) 4 Mb
--- model.gms(5149) 6 Mb
--- Putfile results /local/scratch/a/sgusev/repos/k_means/data/gams_gurobi_gdp.hull_exact/no_mode/2026-02-15_02-43-39/original/results.dat
--- Putfile statresults /local/scratch/a/sgusev/repos/k_means/data/gams_gurobi_gdp.hull_exact/no_mode/2026-02-15_02-43-39/original/resultsstat.dat
*** Status: Normal completion
--- Job model.gms Stop 02/15/26 02:46:26 elapsed 0:02:46.360
Original problem solved. Time taken: 167.00757002830505 seconds
Original objective value: 1.3001595397661
